Route #1: 53 58 13 94 6 89
Route #2: 95 97 92 37 100 98 59 99
Route #3: 60 83 5 84 17 45 46 8 82
Route #4: 64 49 36 47 48 7
Route #5: 88 62 19 11 63 90 32 10
Route #6: 66 20 30 70 31 52 18
Route #7: 96 93 85 16 61
Route #8: 14 38 86 44 91
Route #9: 87 42 43 15 57 2 73 21 40
Route #10: 72 74 22 41 75 56 4
Route #11: 23 67 39 26
Route #12: 12 80 68 77 76 50 1
Route #13: 69 33 81 9 34 78 79 3
Route #14: 51 71 65 35 29 24 25 55 54 28
Route #15: 27
Cost 1193
